Route #1: 0 22 76 28 71 79 20 95 0
Route #2: 0 52 1 58 8 48 85 13 0
Route #3: 0 60 12 103 74 55 42 4 0
Route #4: 0 24 18 41 91 67 72 43 0
Route #5: 0 100 63 31 30 39 61 59 78 0
Route #6: 0 53 9 97 29 57 98 65 68 0
Route #7: 0 80 81 35 16 105 2 54 101 45 0
Route #8: 0 7 75 70 23 14 21 104 0
Route #9: 0 33 84 66 93 51 44 82 0
Route #10: 0 92 15 87 34 11 3 32 0
Route #11: 0 56 89 73 88 64 40 83 99 0
Route #12: 0 26 94 86 38 6 50 25 0
Route #13: 0 96 69 10 47 19 37 90 102 0
Route #14: 0 62 27 36 17 77 49 46 5 0
Cost 36405:
